76
125
100	2
99	4
98	4
96	3
95	2
94	4
93	3
92	3
91	3
90	3
89	4
88	4
87	3
86	1
85	1
84	6
83	1
82	4
81	3
80	2
78	2
77	4
76	1
75	2
74	2
72	5
71	3
70	4
69	3
67	1
66	1
65	1
63	3
62	2
61	1
60	5
59	1
58	1
57	5
56	2
54	7
53	3
51	5
50	1
48	1
47	3
46	1
45	2
44	2
43	4
42	2
40	3
39	4
38	4
37	4
36	2
35	2
34	4
33	1
32	2
31	2
29	4
28	1
27	2
26	1
24	2
23	5
22	1
21	3
19	3
18	1
17	2
16	2
15	1
14	2
13	2
